&PROJWFC
  prefix = 'pw'
  outdir = './out'
  ngauss = 0
  degauss = 0.02
  DeltaE = 0.01
  filpdos = 'pw.pdos'
  filproj = 'pw.proj'
/
! projwfc.x projects onto ALL atomic wavefunctions by default (no
! atom selection): Na s/p for the gallery fatbands AND Co d for the
! e_g' pocket check come from the same filproj output.
