&CONTROL
  calculation = 'scf'
  prefix = 'pw'
  outdir = './out'
  pseudo_dir = '../../pseudo'
  verbosity = 'high'
  tprnfor = .true.
/
&SYSTEM
  ibrav = 4
  celldm(1) = 9.45271759
  celldm(3) = 1.97914393
  nat = 22
  ntyp = 4
  nbnd = 85
  ecutwfc = 60.0
  ecutrho = 480.0
  occupations = 'smearing'
  smearing = 'mv'
  degauss = 0.02
  nspin = 2
  starting_magnetization(1) = 0.3
  vdw_corr = 'grimme-d3'
/
&ELECTRONS
  conv_thr = 1.0d-7
  mixing_beta = 0.3
  mixing_mode = 'local-TF'
  electron_maxstep = 300
/
ATOMIC_SPECIES
  Co  58.93300  Co.pbe-spn-kjpaw_psl.0.3.1.UPF
  O  15.99900  O.pbe-n-kjpaw_psl.1.0.0.UPF
  Na  22.98977  Na.pbe-spn-kjpaw_psl.1.0.0.UPF
  H  1.00800  H.pbe-kjpaw_psl.1.0.0.UPF
! Set I3 (referee response): vdW spot-check.  Geometry identical to the
! set G hydrate SCF at the same delta, plus vdw_corr = 'grimme-d3'
! (DFT-D3, supported by QE 7.3.1).  Compare E(delta) at 0.00/0.30/0.50
! against the non-vdW set G energies: does D3 change the well shape?
ATOMIC_POSITIONS crystal
  Co  0.0000000000  0.0000000000  0.0000000000
  Co  0.3333333333  0.6666666667  0.0000000000
  Co  0.6666666667  0.3333333333  0.0000000000
  O  0.3333333333  0.3333333333  0.0969696970
  O  0.6666666667  0.0000000000  0.0969696970
  O  0.0000000000  0.6666666667  0.0969696970
  O  0.3333333333  0.0000000000  0.9030303030
  O  0.6666666667  0.6666666667  0.9030303030
  O  0.0000000000  0.3333333333  0.9030303030
  Na  0.0000000000  0.0000000000  0.5303030303
  O  0.3333333333  0.0000000000  0.3787878788
  H  0.5340199106  0.0303423465  0.3984293317
  H  0.3120938818  0.9696576535  0.2830660485
  O  0.0000000000  0.3333333333  0.3787878788
  H  0.9696576535  0.5036775641  0.3984293317
  H  0.0303423465  0.3424362283  0.2830660485
  O  0.3333333333  0.6666666667  0.6212121212
  H  0.3581077436  0.8675400977  0.6085279256
  H  0.4121627694  0.6730009283  0.7099766943
  O  0.6666666667  0.3333333333  0.6212121212
  H  0.8675400977  0.5094323541  0.6085279256
  H  0.6730009283  0.2608381589  0.7099766943
K_POINTS automatic
  6 6 2 0 0 0
