&CONTROL
  calculation = 'md'
  prefix = 'pw'
  outdir = './out'
  pseudo_dir = '../../pseudo'
  verbosity = 'high'
  tprnfor = .true.
  dt = 10.0
  nstep = 1200
/
&SYSTEM
  ibrav = 4
  celldm(1) = 9.45271759
  celldm(3) = 1.97914393
  nat = 22
  ntyp = 4
  nbnd = 85
  ecutwfc = 60.0
  ecutrho = 480.0
  occupations = 'smearing'
  smearing = 'mv'
  degauss = 0.02
  nspin = 2
  starting_magnetization(1) = 0.3
/
&ELECTRONS
  conv_thr = 1.0d-5
  mixing_beta = 0.3
  mixing_mode = 'local-TF'
  electron_maxstep = 300
/
&IONS
  ion_dynamics = 'verlet'
  ion_temperature = 'svr'
  tempw = 290.0
  pot_extrapolation = 'second_order'
  wfc_extrapolation = 'second_order'
/
ATOMIC_SPECIES
  Co  58.93300  Co.pbe-spn-kjpaw_psl.0.3.1.UPF
  O  15.99900  O.pbe-n-kjpaw_psl.1.0.0.UPF
  Na  22.98977  Na.pbe-spn-kjpaw_psl.1.0.0.UPF
  H  1.00800  H.pbe-kjpaw_psl.1.0.0.UPF
! Set L walker 1/4 (cage-ensemble MD, jobs_ensemble/md_w1): Born-Oppenheimer
! MD of the set-G hydrate ansatz (see G_NOTES in generate_inputs.py)
! at Na delta = 0 (z = c/2). The 4 waters start from a random rigid
! rotation about their fixed O sites (seed 1, hydrogens only, all
! contacts >= 2.0 A) so the 4 walkers decorrelate from step 0.
! ONLY the 12 water atoms move: if_pos = 0 0 0 on every Co,
! framework O, and Na atom; 1 1 1 on water O and H (same ordering/
! mask as set J's IF_POS_J_PINNED). ion_dynamics = 'verlet',
! ion_temperature = 'svr', tempw = 290 K, dt = 10 Ry a.u. (~0.48
! fs), nstep = 1200 (~580 fs). K_POINTS 2 2 1, conv_thr 1e-5 and
! second_order pot/wfc extrapolation purely for MD throughput --
! NOT used for the set-M snapshot SCFs, which revert to the exact
! set-G electronic settings (K_POINTS 6 6 2, conv_thr 1e-7).
! Purpose: sample a thermal ensemble of cage configurations at
! 290 K; set M (generated pod-side by make_ensemble_scans.py)
! freezes 3 snapshots per surviving walker (first 400 steps
! discarded) and rigidly scans Na through delta = -0.45..+0.45 A
! at each -- the ensemble of E(delta) curves is the physical
! (statistical, non-adiabatic) counterpart to the set-G rigid-cage
! and set-J single-adiabatic-minimum curves.
ATOMIC_POSITIONS crystal
  Co  0.0000000000  0.0000000000  0.0000000000  0 0 0
  Co  0.3333333333  0.6666666667  0.0000000000  0 0 0
  Co  0.6666666667  0.3333333333  0.0000000000  0 0 0
  O  0.3333333333  0.3333333333  0.0969696970  0 0 0
  O  0.6666666667  0.0000000000  0.0969696970  0 0 0
  O  0.0000000000  0.6666666667  0.0969696970  0 0 0
  O  0.3333333333  0.0000000000  0.9030303030  0 0 0
  O  0.6666666667  0.6666666667  0.9030303030  0 0 0
  O  0.0000000000  0.3333333333  0.9030303030  0 0 0
  Na  0.0000000000  0.0000000000  0.5000000000  0 0 0
  O  0.3333333333  0.0000000000  0.3787878788  1 1 1
  H  0.5395644332  0.0650517958  0.4076824160  1 1 1
  H  0.2698605898  0.8107393965  0.3314376427  1 1 1
  O  0.0000000000  0.3333333333  0.3787878788  1 1 1
  H  0.9198133782  0.3622275085  0.2957085463  1 1 1
  H  0.9522611585  0.4439346669  0.4443287963  1 1 1
  O  0.3333333333  0.6666666667  0.6212121212  1 1 1
  H  0.5321598451  0.7374400544  0.6608310102  1 1 1
  H  0.1982409235  0.4832730243  0.6704842421  1 1 1
  O  0.6666666667  0.3333333333  0.6212121212  1 1 1
  H  0.7501844467  0.1979601728  0.6195818064  1 1 1
  H  0.7850002163  0.4837458300  0.6886038750  1 1 1
K_POINTS automatic
  2 2 1 0 0 0
