&CONTROL
  calculation = 'nscf'
  prefix = 'pw'
  outdir = '../Na_1x1_c8.4_d1.00/out'
  pseudo_dir = '../../pseudo'
  verbosity = 'high'
  tprnfor = .true.
/
&SYSTEM
  ibrav = 4
  celldm(1) = 5.45752905
  celldm(3) = 2.90858726
  nat = 4
  ntyp = 3
  nbnd = 27
  ecutwfc = 60.0
  ecutrho = 480.0
  occupations = 'smearing'
  smearing = 'mv'
  degauss = 0.02
  nspin = 2
  starting_magnetization(1) = 0.3
/
&ELECTRONS
  conv_thr = 1.0d-7
  mixing_beta = 0.3
  mixing_mode = 'local-TF'
  electron_maxstep = 300
/
ATOMIC_SPECIES
  Co  58.93300  Co.pbe-spn-kjpaw_psl.0.3.1.UPF
  O  15.99900  O.pbe-n-kjpaw_psl.1.0.0.UPF
  Na  22.98977  Na.pbe-spn-kjpaw_psl.1.0.0.UPF
ATOMIC_POSITIONS crystal
  Co  0.0000000000  0.0000000000  0.0000000000
  O  0.3333333333  0.6666666667  0.1142857143
  O  0.6666666667  0.3333333333  0.8857142857
  Na  0.0000000000  0.0000000000  0.6190476190
K_POINTS automatic
  24 24 8 0 0 0
